c File: data_files/evolved_graphs/g3336.col
c
c Auto generated graph
c
p edge 100 582
e 1 58
e 1 59
e 1 60
e 1 61
e 1 62
e 1 78
e 1 79
e 1 80
e 1 81
e 1 82
e 1 83
e 1 84
e 1 85
e 1 86
e 1 87
e 1 88
e 1 89
e 1 90
e 1 91
e 1 92
e 1 93
e 1 94
e 1 95
e 1 96
e 1 97
e 1 98
e 1 99
e 1 100
e 2 58
e 2 59
e 2 60
e 2 61
e 2 62
e 2 78
e 2 79
e 2 80
e 2 81
e 2 82
e 2 83
e 2 84
e 2 85
e 2 86
e 2 87
e 2 88
e 2 89
e 2 90
e 2 91
e 2 92
e 2 93
e 2 94
e 2 95
e 2 96
e 2 97
e 2 98
e 2 99
e 2 100
e 3 55
e 3 57
e 3 58
e 3 59
e 3 60
e 3 61
e 3 62
e 3 78
e 3 79
e 3 80
e 3 81
e 3 82
e 3 83
e 3 84
e 3 85
e 3 86
e 3 87
e 3 88
e 3 89
e 3 90
e 3 91
e 3 92
e 3 93
e 3 94
e 3 95
e 3 96
e 3 97
e 3 98
e 3 99
e 3 100
e 4 53
e 4 58
e 4 59
e 4 60
e 4 61
e 4 62
e 4 78
e 4 79
e 4 80
e 4 81
e 4 82
e 4 83
e 4 84
e 4 85
e 4 86
e 4 87
e 4 88
e 4 89
e 4 90
e 4 91
e 4 92
e 4 93
e 4 94
e 4 95
e 4 96
e 4 97
e 4 98
e 4 99
e 4 100
e 5 58
e 5 59
e 5 60
e 5 61
e 5 62
e 5 78
e 5 79
e 5 80
e 5 81
e 5 82
e 5 83
e 5 91
e 5 98
e 5 99
e 5 100
e 6 58
e 6 59
e 6 60
e 6 61
e 6 62
e 6 78
e 6 79
e 6 80
e 6 81
e 6 82
e 6 83
e 6 91
e 6 98
e 6 99
e 6 100
e 7 50
e 7 58
e 7 59
e 7 60
e 7 61
e 7 62
e 7 78
e 7 79
e 7 80
e 7 81
e 7 82
e 7 83
e 7 91
e 7 98
e 7 99
e 7 100
e 8 58
e 8 59
e 8 60
e 8 61
e 8 62
e 8 78
e 8 79
e 8 80
e 8 81
e 8 82
e 8 83
e 8 91
e 8 98
e 8 99
e 8 100
e 9 37
e 9 78
e 9 79
e 9 80
e 9 81
e 9 82
e 9 83
e 9 91
e 9 98
e 9 99
e 9 100
e 10 78
e 10 79
e 10 80
e 10 81
e 10 82
e 10 83
e 10 91
e 10 98
e 10 99
e 10 100
e 11 47
e 11 48
e 11 49
e 11 50
e 11 51
e 11 52
e 11 53
e 11 54
e 11 78
e 11 79
e 11 80
e 11 81
e 11 82
e 11 83
e 11 91
e 11 98
e 11 99
e 12 47
e 12 48
e 12 49
e 12 50
e 12 51
e 12 52
e 12 53
e 12 54
e 12 78
e 12 79
e 12 80
e 12 81
e 12 82
e 12 83
e 12 91
e 12 98
e 12 99
e 12 100
e 13 39
e 13 47
e 13 48
e 13 49
e 13 50
e 13 51
e 13 52
e 13 53
e 13 54
e 13 78
e 13 79
e 13 80
e 13 81
e 13 82
e 13 83
e 13 91
e 13 98
e 13 99
e 13 100
e 14 47
e 14 48
e 14 49
e 14 50
e 14 51
e 14 52
e 14 53
e 14 54
e 14 78
e 14 79
e 14 80
e 14 81
e 14 82
e 14 83
e 14 91
e 14 98
e 14 99
e 14 100
e 15 47
e 15 48
e 15 49
e 15 50
e 15 51
e 15 52
e 15 53
e 15 54
e 15 78
e 15 79
e 15 80
e 15 81
e 15 82
e 15 83
e 15 91
e 15 98
e 15 99
e 15 100
e 16 47
e 16 48
e 16 49
e 16 50
e 16 51
e 16 52
e 16 53
e 16 54
e 16 78
e 16 79
e 16 80
e 16 81
e 16 82
e 16 83
e 16 91
e 16 98
e 16 99
e 16 100
e 17 47
e 17 48
e 17 49
e 17 50
e 17 51
e 17 52
e 17 53
e 17 54
e 17 78
e 17 79
e 17 80
e 17 81
e 17 82
e 17 83
e 17 91
e 17 98
e 17 99
e 17 100
e 18 47
e 18 48
e 18 49
e 18 50
e 18 51
e 18 52
e 18 53
e 18 54
e 18 78
e 18 79
e 18 80
e 18 81
e 18 82
e 18 83
e 18 91
e 18 98
e 18 99
e 18 100
e 19 26
e 19 37
e 19 47
e 19 48
e 19 49
e 19 50
e 19 51
e 19 52
e 19 53
e 19 54
e 19 78
e 19 79
e 19 80
e 19 81
e 19 82
e 19 83
e 19 91
e 19 98
e 19 99
e 19 100
e 20 47
e 20 48
e 20 49
e 20 50
e 20 51
e 20 52
e 20 53
e 20 54
e 20 78
e 20 79
e 20 80
e 20 81
e 20 82
e 20 83
e 20 91
e 20 98
e 20 99
e 20 100
e 21 42
e 21 47
e 21 48
e 21 49
e 21 50
e 21 51
e 21 52
e 21 53
e 21 54
e 21 78
e 21 79
e 21 80
e 21 81
e 21 82
e 21 83
e 21 91
e 21 98
e 21 99
e 21 100
e 22 47
e 22 48
e 22 49
e 22 50
e 22 51
e 22 52
e 22 53
e 22 54
e 22 78
e 22 79
e 22 80
e 22 81
e 22 82
e 22 83
e 22 91
e 22 98
e 22 99
e 22 100
e 23 33
e 23 47
e 23 48
e 23 49
e 23 50
e 23 51
e 23 52
e 23 53
e 23 54
e 23 78
e 23 79
e 23 80
e 23 81
e 23 82
e 23 83
e 23 91
e 23 98
e 23 99
e 23 100
e 24 47
e 24 48
e 24 49
e 24 50
e 24 51
e 24 52
e 24 53
e 24 54
e 24 78
e 24 79
e 24 80
e 24 81
e 24 82
e 24 83
e 24 91
e 24 98
e 24 99
e 25 91
e 25 98
e 25 99
e 25 100
e 26 91
e 26 98
e 26 99
e 26 100
e 27 73
e 27 74
e 27 75
e 27 76
e 27 77
e 28 49
e 28 50
e 28 51
e 28 52
e 28 53
e 28 54
e 28 73
e 28 74
e 28 75
e 28 76
e 28 77
e 29 49
e 29 50
e 29 51
e 29 52
e 29 53
e 29 54
e 29 56
e 29 57
e 29 58
e 29 59
e 29 60
e 29 61
e 30 44
e 30 49
e 30 50
e 30 51
e 30 52
e 30 53
e 30 54
e 30 56
e 30 57
e 30 58
e 30 59
e 30 60
e 30 61
e 31 49
e 31 50
e 31 51
e 31 52
e 31 53
e 31 54
e 31 56
e 31 57
e 31 58
e 31 59
e 31 60
e 31 61
e 32 49
e 32 50
e 32 56
e 32 57
e 32 58
e 32 59
e 32 60
e 32 61
e 33 38
e 33 49
e 33 50
e 34 49
e 34 50
e 34 80
e 35 49
e 35 50
e 36 49
e 36 50
e 37 39
e 37 50
e 38 49
e 38 50
e 39 49
e 39 50
e 40 49
e 40 50
e 41 49
e 41 50
e 42 49
e 42 50
e 43 49
e 43 50
e 44 49
e 44 50
e 45 49
e 45 50
e 45 51
e 45 52
e 45 53
e 45 54
e 46 49
e 46 50
e 46 51
e 46 52
e 46 53
e 46 54
e 47 49
e 47 50
e 47 51
e 47 52
e 47 53
e 47 54
e 47 55
e 48 49
e 48 50
e 48 51
e 48 52
e 48 53
e 48 54
e 48 55
e 49 54
e 49 55
e 50 54
e 50 55
e 52 55
e 56 69
e 57 69
e 58 69
e 81 82
